
Gurobi 9.1.2 (win64) logging started Mon Dec  6 12:01:51 2021

Gurobi Optimizer version 9.1.2 build v9.1.2rc0 (win64)
Thread count: 8 physical cores, 8 logical processors, using up to 8 threads
Optimize a model with 1 rows, 16 columns and 15 nonzeros
Model fingerprint: 0x12a690bf
Variable types: 1 continuous, 15 integer (15 binary)
Coefficient statistics:
  Matrix range     [1e+00, 1e+01]
  Objective range  [1e+00, 1e+00]
  Bounds range     [8e+00, 8e+00]
  RHS range        [1e+01, 1e+01]
Presolve time: 0.00s
Presolved: 1 rows, 16 columns, 15 nonzeros
Variable types: 1 continuous, 15 integer (15 binary)

Root simplex log...

Iteration    Objective       Primal Inf.    Dual Inf.      Time
       0   -7.8468330e+00   1.084302e-01   0.000000e+00     14s
       2   -7.8468330e+00   0.000000e+00   0.000000e+00     14s

Root relaxation: objective -7.846833e+00, 2 iterations, 0.00 seconds

    Nodes    |    Current Node    |     Objective Bounds      |     Work
 Expl Unexpl |  Obj  Depth IntInf | Incumbent    BestBd   Gap | It/Node Time

*    0     0               0      -7.8468330   -7.84683  0.00%     -   14s

Cutting planes:
  Lazy constraints: 1

Explored 0 nodes (2 simplex iterations) in 14.45 seconds
Thread count was 8 (of 8 available processors)

Solution count 1: -7.84683 
No other solutions better than -7.84683

Optimal solution found (tolerance 1.00e-04)
Best objective -7.846833046742e+00, best bound -7.846833046742e+00, gap 0.0000%

User-callback calls 79, time in user-callback 18.81 sec
